c FILE: n200d20/random-n200-d20-10.col

p edge 200 3980
e 1 8
e 1 9
e 1 11
e 1 17
e 1 23
e 1 31
e 1 35
e 1 40
e 1 52
e 1 57
e 1 61
e 1 62
e 1 65
e 1 68
e 1 73
e 1 76
e 1 87
e 1 89
e 1 94
e 1 99
e 1 100
e 1 112
e 1 123
e 1 124
e 1 136
e 1 148
e 1 150
e 1 154
e 1 162
e 1 168
e 1 171
e 1 173
e 1 184
e 2 5
e 2 10
e 2 16
e 2 21
e 2 29
e 2 30
e 2 34
e 2 41
e 2 42
e 2 44
e 2 49
e 2 51
e 2 57
e 2 58
e 2 74
e 2 75
e 2 80
e 2 81
e 2 82
e 2 84
e 2 86
e 2 88
e 2 106
e 2 109
e 2 113
e 2 120
e 2 127
e 2 131
e 2 137
e 2 143
e 2 154
e 2 157
e 2 158
e 2 161
e 2 171
e 2 172
e 2 183
e 2 192
e 2 193
e 2 196
e 3 14
e 3 15
e 3 16
e 3 23
e 3 28
e 3 33
e 3 39
e 3 42
e 3 48
e 3 57
e 3 64
e 3 66
e 3 68
e 3 72
e 3 73
e 3 77
e 3 92
e 3 95
e 3 104
e 3 111
e 3 114
e 3 115
e 3 123
e 3 124
e 3 125
e 3 138
e 3 141
e 3 150
e 3 157
e 3 159
e 3 165
e 3 166
e 3 170
e 3 171
e 3 176
e 3 177
e 3 179
e 3 180
e 3 183
e 3 189
e 3 190
e 3 193
e 3 195
e 3 199
e 4 13
e 4 15
e 4 22
e 4 26
e 4 34
e 4 39
e 4 40
e 4 54
e 4 59
e 4 61
e 4 67
e 4 69
e 4 77
e 4 79
e 4 95
e 4 100
e 4 112
e 4 120
e 4 126
e 4 131
e 4 132
e 4 133
e 4 153
e 4 156
e 4 157
e 4 163
e 4 166
e 4 170
e 4 173
e 4 177
e 4 183
e 4 190
e 4 195
e 5 11
e 5 12
e 5 17
e 5 21
e 5 25
e 5 28
e 5 36
e 5 38
e 5 39
e 5 42
e 5 44
e 5 64
e 5 65
e 5 69
e 5 76
e 5 92
e 5 108
e 5 112
e 5 114
e 5 126
e 5 128
e 5 131
e 5 133
e 5 136
e 5 149
e 5 150
e 5 155
e 5 159
e 5 174
e 5 175
e 5 177
e 5 179
e 5 186
e 5 191
e 6 12
e 6 17
e 6 20
e 6 21
e 6 22
e 6 23
e 6 24
e 6 28
e 6 36
e 6 40
e 6 43
e 6 51
e 6 58
e 6 68
e 6 70
e 6 77
e 6 83
e 6 84
e 6 93
e 6 100
e 6 101
e 6 107
e 6 110
e 6 113
e 6 119
e 6 121
e 6 131
e 6 134
e 6 142
e 6 145
e 6 147
e 6 159
e 6 168
e 6 177
e 6 186
e 6 189
e 6 191
e 6 196
e 7 8
e 7 12
e 7 13
e 7 19
e 7 20
e 7 23
e 7 28
e 7 36
e 7 38
e 7 44
e 7 48
e 7 69
e 7 72
e 7 77
e 7 79
e 7 84
e 7 86
e 7 88
e 7 89
e 7 93
e 7 94
e 7 101
e 7 104
e 7 108
e 7 121
e 7 133
e 7 134
e 7 137
e 7 146
e 7 149
e 7 158
e 7 165
e 7 167
e 7 170
e 7 171
e 7 176
e 7 178
e 7 180
e 7 186
e 7 187
e 8 11
e 8 34
e 8 44
e 8 49
e 8 53
e 8 54
e 8 63
e 8 68
e 8 78
e 8 79
e 8 80
e 8 83
e 8 91
e 8 101
e 8 113
e 8 117
e 8 118
e 8 122
e 8 128
e 8 131
e 8 138
e 8 140
e 8 143
e 8 145
e 8 147
e 8 152
e 8 158
e 8 160
e 8 162
e 8 170
e 8 172
e 8 173
e 8 179
e 8 182
e 8 198
e 9 14
e 9 16
e 9 22
e 9 23
e 9 28
e 9 31
e 9 37
e 9 55
e 9 64
e 9 74
e 9 81
e 9 96
e 9 99
e 9 100
e 9 101
e 9 110
e 9 112
e 9 113
e 9 114
e 9 120
e 9 121
e 9 126
e 9 127
e 9 135
e 9 137
e 9 138
e 9 139
e 9 143
e 9 144
e 9 157
e 9 160
e 9 167
e 9 169
e 9 170
e 9 172
e 9 184
e 9 187
e 10 12
e 10 18
e 10 19
e 10 27
e 10 29
e 10 31
e 10 36
e 10 45
e 10 47
e 10 48
e 10 64
e 10 68
e 10 79
e 10 82
e 10 84
e 10 91
e 10 99
e 10 102
e 10 104
e 10 106
e 10 119
e 10 122
e 10 123
e 10 126
e 10 148
e 10 151
e 10 152
e 10 153
e 10 154
e 10 156
e 10 158
e 10 159
e 10 160
e 10 164
e 10 180
e 10 183
e 10 191
e 11 20
e 11 22
e 11 36
e 11 39
e 11 64
e 11 65
e 11 67
e 11 69
e 11 74
e 11 79
e 11 80
e 11 86
e 11 87
e 11 89
e 11 91
e 11 98
e 11 100
e 11 107
e 11 108
e 11 109
e 11 112
e 11 116
e 11 125
e 11 126
e 11 127
e 11 139
e 11 143
e 11 145
e 11 151
e 11 153
e 11 156
e 11 158
e 11 162
e 11 170
e 11 191
e 11 199
e 11 200
e 12 25
e 12 26
e 12 38
e 12 66
e 12 68
e 12 73
e 12 75
e 12 82
e 12 84
e 12 91
e 12 93
e 12 106
e 12 116
e 12 118
e 12 120
e 12 122
e 12 123
e 12 127
e 12 134
e 12 143
e 12 147
e 12 150
e 12 152
e 12 155
e 12 160
e 12 162
e 12 169
e 12 170
e 12 171
e 12 174
e 12 175
e 12 184
e 12 188
e 12 193
e 12 195
e 12 197
e 12 200
e 13 21
e 13 26
e 13 31
e 13 32
e 13 39
e 13 45
e 13 51
e 13 52
e 13 54
e 13 55
e 13 59
e 13 60
e 13 66
e 13 74
e 13 77
e 13 83
e 13 88
e 13 90
e 13 92
e 13 99
e 13 103
e 13 105
e 13 110
e 13 112
e 13 117
e 13 120
e 13 130
e 13 131
e 13 133
e 13 149
e 13 152
e 13 158
e 13 169
e 13 178
e 13 180
e 13 182
e 13 187
e 13 189
e 13 200
e 14 17
e 14 18
e 14 21
e 14 22
e 14 27
e 14 29
e 14 39
e 14 43
e 14 50
e 14 54
e 14 57
e 14 60
e 14 61
e 14 62
e 14 65
e 14 70
e 14 77
e 14 78
e 14 84
e 14 87
e 14 89
e 14 96
e 14 98
e 14 102
e 14 106
e 14 111
e 14 115
e 14 120
e 14 122
e 14 130
e 14 132
e 14 137
e 14 140
e 14 143
e 14 150
e 14 165
e 14 166
e 14 167
e 14 173
e 14 174
e 14 178
e 14 179
e 14 181
e 14 182
e 14 185
e 14 186
e 14 187
e 14 188
e 14 193
e 14 194
e 14 198
e 15 18
e 15 30
e 15 31
e 15 34
e 15 40
e 15 42
e 15 46
e 15 47
e 15 48
e 15 60
e 15 62
e 15 82
e 15 96
e 15 102
e 15 103
e 15 104
e 15 105
e 15 110
e 15 118
e 15 119
e 15 128
e 15 134
e 15 141
e 15 144
e 15 145
e 15 148
e 15 156
e 15 169
e 15 170
e 15 172
e 15 177
e 15 178
e 15 180
e 15 200
e 16 18
e 16 25
e 16 30
e 16 35
e 16 43
e 16 46
e 16 49
e 16 50
e 16 52
e 16 54
e 16 56
e 16 62
e 16 64
e 16 70
e 16 73
e 16 74
e 16 76
e 16 77
e 16 90
e 16 93
e 16 102
e 16 104
e 16 121
e 16 124
e 16 132
e 16 135
e 16 136
e 16 137
e 16 142
e 16 147
e 16 148
e 16 152
e 16 155
e 16 173
e 16 175
e 16 182
e 16 188
e 16 192
e 16 193
e 16 194
e 16 196
e 16 198
e 16 199
e 16 200
e 17 18
e 17 22
e 17 33
e 17 58
e 17 60
e 17 61
e 17 68
e 17 72
e 17 78
e 17 80
e 17 82
e 17 87
e 17 88
e 17 89
e 17 90
e 17 97
e 17 100
e 17 114
e 17 115
e 17 124
e 17 126
e 17 135
e 17 142
e 17 146
e 17 147
e 17 161
e 17 162
e 17 169
e 17 170
e 17 171
e 17 176
e 17 182
e 17 183
e 17 184
e 17 188
e 17 196
e 18 23
e 18 24
e 18 29
e 18 33
e 18 42
e 18 45
e 18 46
e 18 50
e 18 51
e 18 52
e 18 60
e 18 62
e 18 63
e 18 64
e 18 74
e 18 76
e 18 78
e 18 81
e 18 83
e 18 95
e 18 101
e 18 104
e 18 106
e 18 120
e 18 121
e 18 123
e 18 124
e 18 128
e 18 138
e 18 142
e 18 143
e 18 149
e 18 150
e 18 152
e 18 155
e 18 166
e 18 176
e 18 183
e 19 23
e 19 27
e 19 29
e 19 33
e 19 38
e 19 39
e 19 41
e 19 43
e 19 45
e 19 50
e 19 55
e 19 56
e 19 57
e 19 58
e 19 59
e 19 63
e 19 73
e 19 83
e 19 85
e 19 88
e 19 90
e 19 92
e 19 93
e 19 96
e 19 97
e 19 106
e 19 110
e 19 114
e 19 115
e 19 120
e 19 141
e 19 145
e 19 156
e 19 161
e 19 163
e 19 164
e 19 165
e 19 166
e 19 167
e 19 168
e 19 169
e 19 183
e 19 189
e 19 192
e 19 193
e 19 195
e 19 197
e 19 198
e 20 22
e 20 24
e 20 26
e 20 27
e 20 39
e 20 49
e 20 52
e 20 54
e 20 55
e 20 57
e 20 62
e 20 69
e 20 74
e 20 91
e 20 100
e 20 101
e 20 103
e 20 114
e 20 115
e 20 118
e 20 123
e 20 137
e 20 139
e 20 140
e 20 143
e 20 144
e 20 146
e 20 156
e 20 168
e 20 173
e 20 174
e 20 180
e 20 183
e 20 186
e 21 45
e 21 47
e 21 50
e 21 53
e 21 59
e 21 67
e 21 69
e 21 70
e 21 73
e 21 80
e 21 81
e 21 82
e 21 87
e 21 94
e 21 96
e 21 98
e 21 103
e 21 105
e 21 106
e 21 109
e 21 121
e 21 130
e 21 134
e 21 148
e 21 155
e 21 156
e 21 160
e 21 161
e 21 162
e 21 164
e 21 177
e 21 182
e 21 183
e 21 184
e 21 186
e 21 194
e 21 196
e 21 198
e 22 26
e 22 29
e 22 35
e 22 37
e 22 42
e 22 43
e 22 52
e 22 54
e 22 58
e 22 59
e 22 65
e 22 67
e 22 71
e 22 79
e 22 89
e 22 91
e 22 102
e 22 120
e 22 124
e 22 136
e 22 139
e 22 149
e 22 150
e 22 155
e 22 164
e 22 165
e 22 175
e 22 177
e 22 180
e 22 187
e 22 196
e 22 199
e 23 24
e 23 25
e 23 29
e 23 33
e 23 39
e 23 49
e 23 53
e 23 57
e 23 61
e 23 65
e 23 67
e 23 68
e 23 74
e 23 78
e 23 86
e 23 104
e 23 106
e 23 115
e 23 122
e 23 124
e 23 126
e 23 143
e 23 147
e 23 169
e 23 170
e 23 173
e 23 174
e 23 179
e 23 182
e 23 183
e 23 186
e 23 190
e 23 194
e 23 200
e 24 37
e 24 40
e 24 50
e 24 55
e 24 56
e 24 58
e 24 68
e 24 72
e 24 74
e 24 86
e 24 87
e 24 99
e 24 100
e 24 104
e 24 110
e 24 111
e 24 117
e 24 124
e 24 125
e 24 142
e 24 143
e 24 153
e 24 156
e 24 158
e 24 161
e 24 166
e 24 171
e 24 173
e 24 174
e 24 177
e 24 191
e 24 192
e 24 198
e 24 199
e 25 29
e 25 35
e 25 40
e 25 43
e 25 46
e 25 50
e 25 55
e 25 58
e 25 60
e 25 61
e 25 67
e 25 82
e 25 83
e 25 84
e 25 91
e 25 97
e 25 98
e 25 108
e 25 110
e 25 111
e 25 117
e 25 123
e 25 127
e 25 132
e 25 135
e 25 159
e 25 174
e 25 176
e 25 177
e 25 178
e 25 179
e 25 180
e 25 187
e 25 190
e 25 195
e 25 199
e 26 30
e 26 32
e 26 39
e 26 51
e 26 52
e 26 55
e 26 56
e 26 60
e 26 73
e 26 75
e 26 82
e 26 89
e 26 90
e 26 95
e 26 96
e 26 102
e 26 106
e 26 111
e 26 121
e 26 132
e 26 134
e 26 139
e 26 141
e 26 144
e 26 160
e 26 161
e 26 169
e 26 172
e 26 189
e 26 194
e 26 200
e 27 29
e 27 30
e 27 32
e 27 36
e 27 45
e 27 46
e 27 53
e 27 59
e 27 60
e 27 61
e 27 62
e 27 64
e 27 73
e 27 75
e 27 79
e 27 93
e 27 100
e 27 104
e 27 106
e 27 117
e 27 119
e 27 131
e 27 134
e 27 141
e 27 158
e 27 161
e 27 163
e 27 177
e 27 185
e 27 186
e 27 189
e 27 191
e 28 33
e 28 41
e 28 42
e 28 50
e 28 61
e 28 63
e 28 76
e 28 84
e 28 87
e 28 89
e 28 92
e 28 99
e 28 100
e 28 107
e 28 108
e 28 109
e 28 117
e 28 118
e 28 125
e 28 126
e 28 131
e 28 132
e 28 141
e 28 144
e 28 145
e 28 148
e 28 150
e 28 157
e 28 158
e 28 159
e 28 171
e 28 173
e 28 176
e 28 180
e 28 181
e 28 183
e 28 185
e 28 186
e 28 191
e 28 192
e 28 193
e 28 198
e 29 39
e 29 41
e 29 48
e 29 49
e 29 51
e 29 53
e 29 55
e 29 56
e 29 59
e 29 60
e 29 61
e 29 64
e 29 65
e 29 84
e 29 88
e 29 94
e 29 116
e 29 120
e 29 128
e 29 135
e 29 150
e 29 154
e 29 157
e 29 159
e 29 162
e 29 164
e 29 165
e 29 177
e 29 178
e 29 182
e 29 190
e 29 199
e 30 38
e 30 54
e 30 58
e 30 65
e 30 79
e 30 99
e 30 113
e 30 118
e 30 121
e 30 130
e 30 133
e 30 142
e 30 148
e 30 152
e 30 153
e 30 155
e 30 164
e 30 165
e 30 174
e 30 175
e 30 179
e 30 180
e 30 187
e 30 195
e 31 38
e 31 41
e 31 45
e 31 47
e 31 51
e 31 55
e 31 57
e 31 62
e 31 64
e 31 65
e 31 69
e 31 73
e 31 87
e 31 93
e 31 98
e 31 99
e 31 101
e 31 112
e 31 119
e 31 120
e 31 133
e 31 136
e 31 139
e 31 140
e 31 143
e 31 152
e 31 156
e 31 158
e 31 166
e 31 168
e 31 180
e 31 181
e 31 183
e 31 186
e 31 187
e 31 190
e 31 192
e 31 195
e 31 197
e 31 199
e 32 35
e 32 42
e 32 44
e 32 46
e 32 60
e 32 62
e 32 78
e 32 82
e 32 84
e 32 85
e 32 88
e 32 92
e 32 98
e 32 100
e 32 103
e 32 106
e 32 110
e 32 115
e 32 124
e 32 151
e 32 156
e 32 161
e 32 162
e 32 163
e 32 165
e 32 167
e 32 173
e 32 174
e 32 186
e 32 193
e 32 197
e 33 38
e 33 44
e 33 54
e 33 59
e 33 74
e 33 78
e 33 79
e 33 80
e 33 84
e 33 89
e 33 94
e 33 101
e 33 113
e 33 120
e 33 121
e 33 125
e 33 127
e 33 130
e 33 136
e 33 146
e 33 151
e 33 154
e 33 161
e 33 165
e 33 166
e 33 195
e 34 39
e 34 41
e 34 45
e 34 60
e 34 67
e 34 72
e 34 74
e 34 76
e 34 77
e 34 79
e 34 87
e 34 91
e 34 98
e 34 99
e 34 102
e 34 106
e 34 118
e 34 120
e 34 121
e 34 123
e 34 126
e 34 127
e 34 129
e 34 136
e 34 142
e 34 155
e 34 165
e 34 169
e 34 171
e 34 174
e 34 180
e 34 181
e 34 188
e 35 47
e 35 50
e 35 54
e 35 60
e 35 70
e 35 74
e 35 84
e 35 86
e 35 88
e 35 92
e 35 97
e 35 107
e 35 112
e 35 114
e 35 117
e 35 118
e 35 119
e 35 121
e 35 126
e 35 131
e 35 133
e 35 144
e 35 152
e 35 154
e 35 156
e 35 160
e 35 161
e 35 165
e 35 179
e 35 186
e 35 189
e 35 191
e 35 194
e 35 200
e 36 50
e 36 52
e 36 55
e 36 57
e 36 62
e 36 68
e 36 74
e 36 75
e 36 79
e 36 80
e 36 87
e 36 90
e 36 92
e 36 107
e 36 108
e 36 109
e 36 114
e 36 120
e 36 121
e 36 148
e 36 151
e 36 152
e 36 155
e 36 161
e 36 170
e 36 175
e 36 177
e 36 185
e 36 196
e 36 197
e 36 200
e 37 39
e 37 40
e 37 47
e 37 54
e 37 55
e 37 56
e 37 60
e 37 63
e 37 69
e 37 73
e 37 75
e 37 79
e 37 83
e 37 89
e 37 92
e 37 95
e 37 100
e 37 113
e 37 117
e 37 123
e 37 130
e 37 133
e 37 135
e 37 137
e 37 138
e 37 143
e 37 153
e 37 155
e 37 160
e 37 163
e 37 168
e 37 173
e 37 175
e 37 179
e 37 185
e 37 187
e 37 189
e 38 39
e 38 47
e 38 50
e 38 60
e 38 61
e 38 75
e 38 77
e 38 82
e 38 84
e 38 86
e 38 89
e 38 91
e 38 95
e 38 110
e 38 115
e 38 120
e 38 122
e 38 124
e 38 125
e 38 132
e 38 134
e 38 135
e 38 141
e 38 142
e 38 144
e 38 152
e 38 153
e 38 162
e 38 163
e 38 164
e 38 168
e 38 173
e 38 177
e 38 181
e 38 184
e 38 185
e 38 194
e 38 200
e 39 40
e 39 46
e 39 55
e 39 57
e 39 60
e 39 62
e 39 63
e 39 71
e 39 77
e 39 84
e 39 87
e 39 95
e 39 104
e 39 108
e 39 109
e 39 111
e 39 119
e 39 120
e 39 129
e 39 134
e 39 137
e 39 144
e 39 145
e 39 147
e 39 154
e 39 157
e 39 161
e 39 162
e 39 163
e 39 178
e 39 179
e 39 181
e 39 183
e 39 187
e 39 190
e 39 194
e 39 198
e 40 46
e 40 51
e 40 59
e 40 60
e 40 63
e 40 65
e 40 66
e 40 76
e 40 87
e 40 92
e 40 94
e 40 103
e 40 119
e 40 123
e 40 127
e 40 132
e 40 134
e 40 140
e 40 156
e 40 166
e 40 167
e 40 168
e 40 186
e 40 196
e 41 43
e 41 47
e 41 48
e 41 55
e 41 64
e 41 68
e 41 73
e 41 74
e 41 79
e 41 84
e 41 92
e 41 97
e 41 106
e 41 110
e 41 123
e 41 128
e 41 135
e 41 157
e 41 162
e 41 164
e 41 168
e 41 170
e 41 173
e 41 175
e 41 177
e 41 182
e 42 45
e 42 48
e 42 59
e 42 61
e 42 63
e 42 66
e 42 81
e 42 93
e 42 94
e 42 96
e 42 108
e 42 111
e 42 118
e 42 121
e 42 123
e 42 139
e 42 145
e 42 151
e 42 154
e 42 159
e 42 164
e 42 166
e 42 169
e 42 172
e 42 176
e 42 183
e 42 185
e 42 186
e 42 198
e 42 200
e 43 44
e 43 47
e 43 52
e 43 55
e 43 58
e 43 61
e 43 69
e 43 76
e 43 78
e 43 81
e 43 83
e 43 90
e 43 98
e 43 105
e 43 106
e 43 107
e 43 119
e 43 124
e 43 128
e 43 129
e 43 140
e 43 144
e 43 152
e 43 153
e 43 155
e 43 159
e 43 166
e 43 168
e 43 172
e 43 180
e 43 182
e 43 184
e 43 188
e 43 196
e 44 51
e 44 56
e 44 67
e 44 76
e 44 81
e 44 84
e 44 93
e 44 95
e 44 96
e 44 103
e 44 114
e 44 117
e 44 118
e 44 125
e 44 126
e 44 128
e 44 141
e 44 145
e 44 147
e 44 148
e 44 154
e 44 155
e 44 161
e 44 164
e 44 165
e 44 167
e 44 169
e 44 179
e 44 182
e 44 185
e 44 187
e 44 190
e 44 197
e 45 47
e 45 48
e 45 53
e 45 54
e 45 57
e 45 63
e 45 64
e 45 75
e 45 79
e 45 81
e 45 88
e 45 89
e 45 90
e 45 94
e 45 95
e 45 96
e 45 101
e 45 102
e 45 106
e 45 114
e 45 118
e 45 121
e 45 122
e 45 130
e 45 138
e 45 139
e 45 150
e 45 153
e 45 155
e 45 156
e 45 171
e 45 172
e 45 178
e 45 181
e 45 183
e 45 185
e 45 186
e 45 194
e 45 196
e 46 49
e 46 54
e 46 55
e 46 70
e 46 72
e 46 73
e 46 76
e 46 82
e 46 86
e 46 87
e 46 90
e 46 92
e 46 93
e 46 105
e 46 106
e 46 107
e 46 111
e 46 115
e 46 118
e 46 132
e 46 137
e 46 146
e 46 157
e 46 159
e 46 172
e 46 183
e 46 184
e 46 187
e 46 190
e 46 199
e 47 48
e 47 58
e 47 63
e 47 68
e 47 86
e 47 91
e 47 107
e 47 114
e 47 118
e 47 119
e 47 120
e 47 121
e 47 127
e 47 130
e 47 132
e 47 144
e 47 147
e 47 149
e 47 162
e 47 164
e 47 166
e 47 170
e 47 171
e 47 179
e 47 181
e 47 188
e 47 193
e 48 54
e 48 60
e 48 62
e 48 64
e 48 66
e 48 75
e 48 81
e 48 82
e 48 84
e 48 91
e 48 92
e 48 97
e 48 99
e 48 101
e 48 102
e 48 107
e 48 112
e 48 113
e 48 120
e 48 131
e 48 132
e 48 137
e 48 144
e 48 146
e 48 147
e 48 148
e 48 153
e 48 159
e 48 160
e 48 177
e 48 178
e 48 183
e 48 184
e 48 185
e 48 186
e 48 190
e 48 194
e 48 195
e 48 198
e 48 199
e 49 50
e 49 51
e 49 53
e 49 55
e 49 58
e 49 74
e 49 77
e 49 79
e 49 84
e 49 94
e 49 101
e 49 122
e 49 128
e 49 129
e 49 130
e 49 138
e 49 140
e 49 148
e 49 151
e 49 152
e 49 153
e 49 158
e 49 161
e 49 164
e 49 172
e 49 177
e 49 182
e 49 183
e 49 186
e 49 192
e 49 193
e 49 199
e 50 54
e 50 63
e 50 66
e 50 71
e 50 74
e 50 76
e 50 87
e 50 88
e 50 89
e 50 93
e 50 95
e 50 106
e 50 107
e 50 110
e 50 117
e 50 120
e 50 126
e 50 127
e 50 135
e 50 146
e 50 148
e 50 149
e 50 150
e 50 154
e 50 155
e 50 158
e 50 185
e 50 188
e 50 189
e 50 199
e 51 53
e 51 54
e 51 56
e 51 61
e 51 62
e 51 64
e 51 66
e 51 73
e 51 74
e 51 76
e 51 83
e 51 88
e 51 101
e 51 108
e 51 111
e 51 119
e 51 121
e 51 134
e 51 143
e 51 156
e 51 160
e 51 166
e 51 169
e 51 173
e 51 175
e 51 180
e 51 187
e 51 193
e 52 57
e 52 63
e 52 64
e 52 78
e 52 82
e 52 84
e 52 95
e 52 101
e 52 120
e 52 130
e 52 133
e 52 139
e 52 141
e 52 146
e 52 155
e 52 159
e 52 162
e 52 172
e 52 177
e 52 185
e 52 186
e 52 187
e 52 190
e 52 196
e 53 54
e 53 55
e 53 56
e 53 60
e 53 63
e 53 69
e 53 70
e 53 84
e 53 88
e 53 91
e 53 102
e 53 103
e 53 109
e 53 118
e 53 122
e 53 125
e 53 127
e 53 135
e 53 136
e 53 141
e 53 145
e 53 147
e 53 150
e 53 151
e 53 153
e 53 154
e 53 155
e 53 160
e 53 166
e 53 167
e 53 170
e 53 172
e 53 174
e 53 182
e 53 184
e 53 198
e 54 73
e 54 74
e 54 83
e 54 84
e 54 85
e 54 86
e 54 89
e 54 90
e 54 93
e 54 104
e 54 111
e 54 113
e 54 115
e 54 130
e 54 131
e 54 139
e 54 150
e 54 160
e 54 161
e 54 164
e 54 169
e 54 172
e 54 179
e 54 181
e 54 183
e 54 190
e 54 192
e 54 194
e 54 196
e 54 197
e 54 200
e 55 60
e 55 67
e 55 85
e 55 91
e 55 94
e 55 96
e 55 97
e 55 98
e 55 100
e 55 106
e 55 108
e 55 111
e 55 112
e 55 120
e 55 121
e 55 128
e 55 129
e 55 130
e 55 133
e 55 137
e 55 141
e 55 145
e 55 155
e 55 159
e 55 160
e 55 163
e 55 167
e 55 175
e 55 176
e 55 183
e 55 184
e 55 186
e 55 187
e 55 188
e 55 189
e 55 190
e 55 193
e 55 195
e 56 78
e 56 79
e 56 89
e 56 96
e 56 105
e 56 113
e 56 120
e 56 121
e 56 123
e 56 124
e 56 125
e 56 134
e 56 138
e 56 144
e 56 149
e 56 152
e 56 154
e 56 155
e 56 158
e 56 159
e 56 168
e 56 180
e 56 183
e 56 188
e 56 191
e 56 192
e 56 195
e 56 196
e 56 198
e 57 64
e 57 73
e 57 90
e 57 92
e 57 96
e 57 99
e 57 100
e 57 103
e 57 106
e 57 108
e 57 109
e 57 112
e 57 114
e 57 118
e 57 121
e 57 152
e 57 153
e 57 164
e 57 176
e 57 180
e 57 181
e 57 186
e 57 187
e 57 190
e 57 193
e 57 196
e 58 66
e 58 67
e 58 71
e 58 81
e 58 86
e 58 95
e 58 98
e 58 102
e 58 115
e 58 120
e 58 124
e 58 129
e 58 135
e 58 136
e 58 147
e 58 159
e 58 160
e 58 167
e 58 177
e 58 179
e 58 194
e 58 198
e 59 63
e 59 68
e 59 70
e 59 72
e 59 84
e 59 86
e 59 89
e 59 90
e 59 91
e 59 101
e 59 103
e 59 104
e 59 108
e 59 122
e 59 125
e 59 132
e 59 143
e 59 156
e 59 160
e 59 163
e 59 170
e 59 176
e 59 177
e 59 178
e 59 179
e 59 183
e 59 200
e 60 62
e 60 63
e 60 64
e 60 65
e 60 67
e 60 70
e 60 71
e 60 73
e 60 76
e 60 78
e 60 82
e 60 86
e 60 87
e 60 92
e 60 100
e 60 101
e 60 103
e 60 106
e 60 108
e 60 119
e 60 124
e 60 129
e 60 137
e 60 138
e 60 139
e 60 141
e 60 142
e 60 144
e 60 150
e 60 155
e 60 158
e 60 160
e 60 161
e 60 162
e 60 163
e 60 164
e 60 173
e 60 176
e 60 185
e 60 186
e 61 68
e 61 85
e 61 86
e 61 88
e 61 90
e 61 92
e 61 94
e 61 99
e 61 104
e 61 106
e 61 109
e 61 112
e 61 117
e 61 122
e 61 124
e 61 126
e 61 131
e 61 133
e 61 140
e 61 141
e 61 142
e 61 152
e 61 153
e 61 166
e 61 170
e 61 173
e 61 177
e 61 178
e 61 182
e 61 187
e 61 194
e 61 195
e 61 198
e 62 64
e 62 67
e 62 68
e 62 73
e 62 81
e 62 85
e 62 95
e 62 102
e 62 120
e 62 122
e 62 129
e 62 143
e 62 152
e 62 160
e 62 162
e 62 167
e 62 170
e 62 173
e 62 181
e 62 187
e 62 199
e 63 72
e 63 73
e 63 76
e 63 77
e 63 78
e 63 80
e 63 86
e 63 97
e 63 98
e 63 113
e 63 115
e 63 120
e 63 124
e 63 132
e 63 135
e 63 149
e 63 150
e 63 152
e 63 158
e 63 169
e 63 174
e 63 175
e 63 177
e 63 178
e 63 181
e 63 182
e 63 188
e 63 198
e 63 199
e 64 65
e 64 77
e 64 84
e 64 91
e 64 100
e 64 103
e 64 104
e 64 107
e 64 122
e 64 123
e 64 127
e 64 134
e 64 136
e 64 137
e 64 138
e 64 145
e 64 146
e 64 159
e 64 160
e 64 161
e 64 168
e 64 174
e 64 178
e 64 184
e 64 187
e 64 199
e 65 70
e 65 77
e 65 78
e 65 81
e 65 84
e 65 85
e 65 93
e 65 98
e 65 99
e 65 100
e 65 106
e 65 113
e 65 130
e 65 142
e 65 145
e 65 148
e 65 154
e 65 155
e 65 156
e 65 165
e 65 167
e 65 176
e 65 178
e 65 180
e 65 183
e 65 191
e 65 192
e 65 194
e 65 200
e 66 68
e 66 72
e 66 78
e 66 80
e 66 83
e 66 89
e 66 92
e 66 97
e 66 99
e 66 106
e 66 108
e 66 112
e 66 119
e 66 121
e 66 125
e 66 127
e 66 130
e 66 144
e 66 147
e 66 158
e 66 160
e 66 166
e 66 171
e 66 178
e 66 179
e 66 183
e 66 192
e 66 194
e 66 199
e 67 78
e 67 86
e 67 91
e 67 104
e 67 107
e 67 109
e 67 112
e 67 113
e 67 116
e 67 126
e 67 128
e 67 133
e 67 134
e 67 135
e 67 143
e 67 154
e 67 155
e 67 160
e 67 162
e 67 185
e 67 191
e 67 200
e 68 71
e 68 80
e 68 89
e 68 91
e 68 92
e 68 96
e 68 98
e 68 103
e 68 104
e 68 106
e 68 109
e 68 117
e 68 119
e 68 120
e 68 133
e 68 134
e 68 144
e 68 145
e 68 159
e 68 163
e 68 166
e 68 175
e 68 185
e 69 89
e 69 91
e 69 96
e 69 99
e 69 106
e 69 107
e 69 108
e 69 109
e 69 125
e 69 131
e 69 135
e 69 139
e 69 144
e 69 145
e 69 150
e 69 155
e 69 161
e 69 163
e 69 172
e 69 175
e 69 181
e 69 182
e 69 188
e 69 189
e 69 192
e 69 194
e 69 196
e 69 198
e 70 74
e 70 75
e 70 81
e 70 86
e 70 90
e 70 93
e 70 95
e 70 111
e 70 112
e 70 113
e 70 114
e 70 119
e 70 122
e 70 137
e 70 144
e 70 147
e 70 148
e 70 153
e 70 158
e 70 159
e 70 160
e 70 164
e 70 186
e 70 197
e 70 200
e 71 78
e 71 82
e 71 85
e 71 88
e 71 89
e 71 93
e 71 96
e 71 104
e 71 105
e 71 110
e 71 111
e 71 112
e 71 113
e 71 116
e 71 122
e 71 126
e 71 127
e 71 128
e 71 136
e 71 141
e 71 146
e 71 155
e 71 156
e 71 160
e 71 163
e 71 166
e 71 167
e 71 168
e 71 171
e 71 191
e 71 196
e 71 199
e 72 75
e 72 83
e 72 84
e 72 88
e 72 102
e 72 107
e 72 108
e 72 109
e 72 114
e 72 121
e 72 129
e 72 130
e 72 132
e 72 134
e 72 138
e 72 139
e 72 155
e 72 158
e 72 167
e 72 169
e 72 170
e 72 178
e 72 180
e 72 185
e 72 193
e 72 194
e 72 197
e 72 199
e 73 85
e 73 86
e 73 94
e 73 96
e 73 107
e 73 111
e 73 115
e 73 117
e 73 124
e 73 128
e 73 129
e 73 140
e 73 143
e 73 145
e 73 155
e 73 156
e 73 159
e 73 162
e 73 172
e 73 177
e 73 184
e 73 192
e 73 194
e 73 195
e 74 75
e 74 76
e 74 79
e 74 82
e 74 86
e 74 96
e 74 102
e 74 106
e 74 108
e 74 109
e 74 112
e 74 119
e 74 120
e 74 134
e 74 135
e 74 137
e 74 140
e 74 153
e 74 157
e 74 158
e 74 160
e 74 175
e 74 179
e 74 181
e 74 182
e 74 192
e 74 195
e 74 197
e 74 198
e 75 77
e 75 81
e 75 82
e 75 91
e 75 95
e 75 98
e 75 108
e 75 115
e 75 128
e 75 129
e 75 136
e 75 139
e 75 142
e 75 146
e 75 147
e 75 157
e 75 161
e 75 168
e 75 172
e 75 178
e 75 179
e 75 181
e 75 188
e 75 190
e 75 199
e 76 77
e 76 89
e 76 91
e 76 96
e 76 99
e 76 102
e 76 103
e 76 109
e 76 112
e 76 114
e 76 117
e 76 119
e 76 120
e 76 121
e 76 130
e 76 137
e 76 138
e 76 139
e 76 141
e 76 142
e 76 144
e 76 145
e 76 148
e 76 161
e 76 162
e 76 163
e 76 166
e 76 178
e 76 184
e 76 187
e 77 83
e 77 97
e 77 109
e 77 111
e 77 119
e 77 127
e 77 134
e 77 136
e 77 143
e 77 144
e 77 149
e 77 150
e 77 156
e 77 157
e 77 161
e 77 165
e 77 166
e 77 169
e 77 175
e 77 177
e 77 180
e 77 182
e 77 187
e 77 189
e 77 190
e 77 192
e 77 200
e 78 82
e 78 87
e 78 90
e 78 93
e 78 96
e 78 104
e 78 107
e 78 124
e 78 133
e 78 137
e 78 140
e 78 142
e 78 143
e 78 144
e 78 150
e 78 155
e 78 156
e 78 157
e 78 181
e 78 182
e 78 187
e 78 200
e 79 87
e 79 88
e 79 89
e 79 107
e 79 108
e 79 112
e 79 114
e 79 118
e 79 121
e 79 123
e 79 125
e 79 127
e 79 128
e 79 140
e 79 142
e 79 144
e 79 146
e 79 148
e 79 151
e 79 152
e 79 157
e 79 162
e 79 164
e 79 167
e 79 184
e 79 185
e 79 189
e 79 192
e 79 198
e 80 82
e 80 84
e 80 85
e 80 95
e 80 96
e 80 102
e 80 105
e 80 115
e 80 117
e 80 118
e 80 126
e 80 138
e 80 139
e 80 140
e 80 143
e 80 149
e 80 152
e 80 154
e 80 163
e 80 167
e 80 182
e 80 184
e 80 186
e 80 189
e 80 191
e 81 83
e 81 86
e 81 87
e 81 94
e 81 106
e 81 115
e 81 116
e 81 120
e 81 126
e 81 134
e 81 137
e 81 153
e 81 166
e 81 168
e 81 177
e 81 181
e 81 193
e 81 195
e 81 196
e 81 197
e 82 83
e 82 84
e 82 86
e 82 90
e 82 100
e 82 108
e 82 113
e 82 118
e 82 121
e 82 122
e 82 127
e 82 136
e 82 140
e 82 147
e 82 149
e 82 153
e 82 160
e 82 164
e 82 166
e 82 167
e 82 169
e 82 172
e 82 173
e 82 179
e 82 181
e 82 182
e 82 188
e 82 192
e 82 193
e 82 197
e 82 198
e 83 92
e 83 103
e 83 105
e 83 108
e 83 109
e 83 115
e 83 117
e 83 126
e 83 128
e 83 129
e 83 132
e 83 134
e 83 141
e 83 149
e 83 160
e 83 164
e 83 172
e 83 180
e 83 182
e 83 185
e 83 195
e 83 198
e 84 85
e 84 86
e 84 92
e 84 120
e 84 124
e 84 125
e 84 133
e 84 152
e 84 157
e 84 158
e 84 161
e 84 172
e 84 175
e 84 177
e 84 179
e 84 186
e 85 88
e 85 89
e 85 91
e 85 95
e 85 98
e 85 100
e 85 105
e 85 106
e 85 107
e 85 113
e 85 115
e 85 116
e 85 122
e 85 123
e 85 124
e 85 129
e 85 145
e 85 146
e 85 157
e 85 158
e 85 159
e 85 163
e 85 177
e 85 179
e 85 189
e 85 191
e 85 193
e 85 198
e 85 199
e 86 88
e 86 92
e 86 93
e 86 100
e 86 101
e 86 103
e 86 112
e 86 115
e 86 122
e 86 125
e 86 129
e 86 144
e 86 158
e 86 168
e 86 177
e 86 189
e 86 191
e 86 199
e 87 90
e 87 93
e 87 95
e 87 106
e 87 111
e 87 119
e 87 126
e 87 132
e 87 133
e 87 137
e 87 138
e 87 142
e 87 143
e 87 144
e 87 150
e 87 155
e 87 170
e 87 172
e 87 175
e 87 186
e 87 189
e 87 191
e 87 192
e 87 193
e 87 197
e 87 198
e 87 199
e 87 200
e 88 106
e 88 115
e 88 117
e 88 121
e 88 122
e 88 125
e 88 129
e 88 132
e 88 144
e 88 145
e 88 161
e 88 181
e 88 186
e 88 189
e 88 200
e 89 93
e 89 100
e 89 104
e 89 110
e 89 111
e 89 121
e 89 122
e 89 125
e 89 128
e 89 131
e 89 135
e 89 138
e 89 141
e 89 143
e 89 158
e 89 170
e 89 176
e 89 182
e 89 190
e 89 191
e 89 194
e 90 97
e 90 99
e 90 105
e 90 111
e 90 114
e 90 128
e 90 132
e 90 134
e 90 138
e 90 146
e 90 148
e 90 155
e 90 162
e 90 170
e 90 183
e 90 185
e 90 187
e 90 188
e 90 190
e 90 193
e 90 195
e 91 96
e 91 98
e 91 108
e 91 109
e 91 117
e 91 137
e 91 144
e 91 153
e 91 156
e 91 158
e 91 171
e 91 173
e 91 177
e 91 192
e 91 195
e 92 99
e 92 100
e 92 102
e 92 103
e 92 104
e 92 109
e 92 110
e 92 111
e 92 116
e 92 123
e 92 135
e 92 143
e 92 144
e 92 151
e 92 153
e 92 156
e 92 157
e 92 158
e 92 159
e 92 160
e 92 161
e 92 162
e 92 163
e 92 168
e 92 175
e 92 179
e 92 185
e 92 191
e 92 193
e 92 200
e 93 97
e 93 98
e 93 100
e 93 101
e 93 102
e 93 104
e 93 106
e 93 122
e 93 128
e 93 129
e 93 135
e 93 138
e 93 152
e 93 158
e 93 161
e 93 168
e 93 170
e 93 174
e 93 177
e 93 182
e 93 185
e 93 186
e 93 187
e 93 191
e 93 193
e 94 96
e 94 107
e 94 111
e 94 117
e 94 120
e 94 121
e 94 127
e 94 138
e 94 139
e 94 167
e 94 169
e 94 172
e 94 173
e 94 178
e 94 183
e 94 190
e 94 200
e 95 96
e 95 105
e 95 106
e 95 109
e 95 111
e 95 112
e 95 114
e 95 125
e 95 128
e 95 131
e 95 138
e 95 141
e 95 143
e 95 144
e 95 148
e 95 157
e 95 169
e 95 171
e 95 178
e 95 186
e 95 187
e 95 194
e 96 97
e 96 98
e 96 100
e 96 101
e 96 105
e 96 106
e 96 110
e 96 111
e 96 115
e 96 121
e 96 122
e 96 125
e 96 128
e 96 129
e 96 134
e 96 141
e 96 144
e 96 146
e 96 150
e 96 153
e 96 161
e 96 163
e 96 164
e 96 167
e 96 171
e 96 179
e 96 184
e 96 185
e 96 196
e 96 198
e 96 200
e 97 98
e 97 101
e 97 110
e 97 114
e 97 131
e 97 138
e 97 146
e 97 150
e 97 155
e 97 156
e 97 162
e 97 163
e 97 166
e 97 167
e 97 174
e 97 179
e 97 186
e 97 191
e 97 192
e 97 197
e 97 198
e 98 99
e 98 104
e 98 111
e 98 112
e 98 120
e 98 127
e 98 137
e 98 139
e 98 141
e 98 152
e 98 154
e 98 159
e 98 161
e 98 162
e 98 169
e 98 172
e 98 175
e 98 186
e 98 194
e 98 199
e 99 115
e 99 119
e 99 120
e 99 125
e 99 129
e 99 133
e 99 134
e 99 136
e 99 137
e 99 142
e 99 151
e 99 156
e 99 159
e 99 166
e 99 172
e 99 180
e 100 106
e 100 109
e 100 125
e 100 129
e 100 131
e 100 133
e 100 136
e 100 137
e 100 148
e 100 157
e 100 166
e 100 181
e 100 191
e 100 196
e 100 198
e 100 200
e 101 103
e 101 107
e 101 109
e 101 112
e 101 114
e 101 116
e 101 121
e 101 123
e 101 126
e 101 146
e 101 148
e 101 149
e 101 157
e 101 161
e 101 162
e 101 164
e 101 168
e 101 176
e 101 182
e 101 189
e 101 198
e 102 108
e 102 116
e 102 120
e 102 124
e 102 126
e 102 128
e 102 131
e 102 134
e 102 148
e 102 156
e 102 176
e 102 179
e 102 196
e 103 111
e 103 121
e 103 127
e 103 134
e 103 135
e 103 148
e 103 151
e 103 154
e 103 156
e 103 160
e 103 164
e 103 165
e 103 170
e 103 176
e 103 178
e 103 185
e 103 190
e 103 198
e 103 199
e 104 105
e 104 110
e 104 111
e 104 112
e 104 120
e 104 127
e 104 128
e 104 131
e 104 132
e 104 133
e 104 134
e 104 136
e 104 137
e 104 147
e 104 149
e 104 151
e 104 158
e 104 163
e 104 164
e 104 168
e 104 173
e 104 177
e 104 178
e 104 187
e 104 192
e 104 196
e 105 114
e 105 116
e 105 133
e 105 145
e 105 148
e 105 156
e 105 163
e 105 165
e 105 170
e 105 181
e 105 187
e 105 188
e 105 189
e 105 193
e 106 107
e 106 108
e 106 109
e 106 117
e 106 122
e 106 125
e 106 133
e 106 134
e 106 135
e 106 152
e 106 155
e 106 159
e 106 161
e 106 163
e 106 170
e 106 173
e 106 176
e 106 179
e 106 186
e 106 189
e 106 191
e 106 193
e 106 194
e 106 200
e 107 114
e 107 116
e 107 121
e 107 136
e 107 162
e 107 163
e 107 166
e 107 169
e 107 177
e 107 186
e 108 110
e 108 114
e 108 119
e 108 137
e 108 151
e 108 157
e 108 164
e 108 168
e 108 171
e 108 180
e 108 181
e 108 182
e 108 183
e 108 192
e 108 196
e 109 123
e 109 124
e 109 127
e 109 128
e 109 130
e 109 141
e 109 150
e 109 162
e 109 164
e 109 167
e 109 173
e 109 176
e 109 178
e 109 183
e 109 185
e 109 193
e 109 194
e 109 199
e 110 114
e 110 116
e 110 118
e 110 122
e 110 123
e 110 126
e 110 129
e 110 131
e 110 132
e 110 133
e 110 141
e 110 146
e 110 148
e 110 165
e 110 172
e 110 174
e 110 182
e 110 183
e 110 186
e 110 196
e 110 200
e 111 113
e 111 118
e 111 124
e 111 131
e 111 139
e 111 143
e 111 152
e 111 154
e 111 166
e 111 174
e 111 175
e 111 176
e 111 182
e 111 194
e 111 196
e 111 200
e 112 114
e 112 115
e 112 116
e 112 117
e 112 120
e 112 126
e 112 129
e 112 145
e 112 152
e 112 161
e 112 165
e 112 167
e 112 180
e 112 194
e 113 125
e 113 132
e 113 135
e 113 141
e 113 143
e 113 155
e 113 158
e 113 159
e 113 166
e 113 167
e 113 168
e 113 174
e 113 180
e 113 182
e 113 183
e 113 185
e 113 186
e 113 194
e 114 118
e 114 119
e 114 125
e 114 135
e 114 137
e 114 139
e 114 143
e 114 145
e 114 147
e 114 150
e 114 154
e 114 155
e 114 160
e 114 167
e 114 177
e 114 184
e 114 192
e 114 195
e 115 118
e 115 120
e 115 123
e 115 127
e 115 131
e 115 137
e 115 146
e 115 149
e 115 151
e 115 152
e 115 155
e 115 156
e 115 166
e 115 175
e 115 181
e 115 185
e 115 198
e 116 127
e 116 145
e 116 147
e 116 150
e 116 151
e 116 152
e 116 155
e 116 160
e 116 163
e 116 169
e 116 171
e 116 176
e 116 178
e 116 184
e 117 120
e 117 128
e 117 132
e 117 136
e 117 140
e 117 141
e 117 152
e 117 156
e 117 160
e 117 164
e 117 165
e 117 166
e 117 185
e 117 191
e 117 194
e 117 199
e 118 120
e 118 135
e 118 138
e 118 142
e 118 143
e 118 144
e 118 145
e 118 147
e 118 149
e 118 156
e 118 160
e 118 161
e 118 175
e 118 184
e 118 186
e 118 187
e 118 198
e 119 120
e 119 132
e 119 138
e 119 142
e 119 144
e 119 148
e 119 150
e 119 154
e 119 158
e 119 162
e 119 164
e 119 169
e 119 174
e 119 175
e 119 176
e 119 178
e 119 188
e 119 189
e 119 190
e 119 193
e 119 199
e 120 132
e 120 146
e 120 147
e 120 152
e 120 161
e 120 170
e 120 174
e 120 176
e 120 182
e 120 188
e 120 194
e 121 122
e 121 130
e 121 132
e 121 139
e 121 146
e 121 148
e 121 151
e 121 155
e 121 156
e 121 163
e 121 176
e 121 177
e 121 185
e 121 195
e 121 196
e 122 123
e 122 127
e 122 128
e 122 129
e 122 136
e 122 142
e 122 149
e 122 150
e 122 151
e 122 152
e 122 154
e 122 156
e 122 159
e 122 168
e 122 174
e 122 176
e 122 186
e 122 187
e 122 188
e 122 191
e 123 127
e 123 137
e 123 139
e 123 142
e 123 146
e 123 162
e 123 166
e 123 172
e 123 175
e 123 178
e 123 186
e 123 190
e 123 192
e 123 193
e 123 199
e 124 136
e 124 146
e 124 150
e 124 157
e 124 159
e 124 166
e 124 178
e 124 182
e 124 185
e 124 187
e 124 193
e 124 198
e 125 150
e 125 153
e 125 155
e 125 156
e 125 166
e 125 167
e 125 186
e 125 187
e 125 191
e 125 197
e 125 198
e 125 199
e 126 127
e 126 129
e 126 133
e 126 138
e 126 142
e 126 143
e 126 151
e 126 152
e 126 153
e 126 160
e 126 162
e 126 163
e 126 164
e 126 170
e 126 172
e 126 175
e 126 183
e 127 130
e 127 137
e 127 146
e 127 152
e 127 154
e 127 155
e 127 172
e 127 175
e 127 176
e 127 181
e 127 182
e 127 185
e 127 189
e 127 192
e 127 194
e 127 195
e 127 196
e 127 197
e 128 129
e 128 142
e 128 150
e 128 155
e 128 156
e 128 158
e 128 159
e 128 161
e 128 175
e 128 187
e 128 189
e 128 197
e 128 199
e 129 134
e 129 138
e 129 158
e 129 159
e 129 163
e 129 169
e 129 181
e 129 188
e 129 192
e 129 198
e 130 133
e 130 138
e 130 141
e 130 148
e 130 152
e 130 157
e 130 163
e 130 165
e 130 171
e 130 182
e 130 183
e 130 191
e 130 194
e 130 196
e 131 132
e 131 136
e 131 137
e 131 139
e 131 146
e 131 147
e 131 153
e 131 156
e 131 161
e 131 163
e 131 167
e 131 169
e 131 171
e 131 185
e 131 186
e 131 191
e 131 192
e 131 196
e 131 200
e 132 135
e 132 158
e 132 163
e 132 164
e 132 167
e 132 168
e 132 181
e 132 182
e 132 185
e 132 193
e 132 198
e 132 200
e 133 137
e 133 141
e 133 155
e 133 157
e 133 167
e 133 168
e 133 177
e 133 178
e 133 186
e 133 193
e 133 196
e 133 197
e 133 200
e 134 138
e 134 145
e 134 148
e 134 153
e 134 155
e 134 157
e 134 163
e 134 164
e 134 167
e 134 169
e 134 173
e 134 183
e 134 184
e 134 188
e 134 192
e 134 198
e 134 199
e 135 136
e 135 140
e 135 144
e 135 158
e 135 165
e 135 166
e 135 175
e 135 178
e 135 181
e 135 182
e 135 188
e 135 189
e 135 191
e 135 195
e 135 197
e 136 141
e 136 148
e 136 149
e 136 158
e 136 168
e 136 182
e 136 183
e 136 199
e 137 139
e 137 163
e 137 170
e 137 179
e 137 189
e 137 198
e 138 143
e 138 147
e 138 149
e 138 153
e 138 156
e 138 160
e 138 168
e 138 173
e 138 180
e 138 186
e 138 189
e 138 195
e 138 199
e 139 140
e 139 142
e 139 143
e 139 156
e 139 157
e 139 159
e 139 161
e 139 163
e 139 164
e 139 173
e 139 178
e 139 179
e 139 180
e 139 185
e 139 193
e 140 145
e 140 160
e 140 163
e 140 164
e 140 169
e 140 176
e 140 179
e 140 181
e 140 184
e 140 190
e 140 193
e 141 147
e 141 150
e 141 153
e 141 159
e 141 179
e 141 190
e 142 153
e 142 154
e 142 157
e 142 166
e 142 168
e 142 172
e 142 179
e 142 192
e 142 200
e 143 145
e 143 146
e 143 164
e 143 169
e 143 172
e 143 174
e 143 175
e 143 181
e 143 183
e 143 185
e 143 189
e 143 200
e 144 146
e 144 150
e 144 154
e 144 157
e 144 159
e 144 162
e 144 166
e 144 167
e 144 168
e 144 172
e 144 173
e 144 178
e 144 182
e 144 183
e 144 185
e 144 190
e 144 197
e 145 148
e 145 156
e 145 157
e 145 169
e 145 172
e 145 178
e 145 181
e 145 187
e 145 189
e 145 190
e 146 150
e 146 172
e 146 173
e 146 174
e 146 190
e 146 195
e 147 148
e 147 153
e 147 168
e 147 172
e 147 179
e 147 188
e 147 189
e 147 192
e 147 197
e 147 198
e 148 151
e 148 158
e 148 161
e 148 171
e 148 173
e 148 176
e 148 178
e 148 180
e 148 187
e 148 200
e 149 151
e 149 168
e 149 171
e 149 173
e 149 174
e 149 180
e 149 181
e 149 184
e 149 186
e 149 189
e 149 192
e 149 198
e 150 167
e 150 170
e 150 176
e 150 192
e 151 155
e 151 160
e 151 161
e 151 164
e 151 165
e 151 172
e 151 176
e 151 177
e 151 178
e 151 184
e 151 186
e 151 190
e 152 161
e 152 162
e 152 165
e 152 166
e 152 167
e 152 168
e 152 172
e 152 174
e 152 182
e 152 192
e 153 165
e 153 166
e 153 180
e 153 184
e 153 187
e 153 190
e 153 193
e 153 196
e 153 197
e 154 157
e 154 163
e 154 165
e 154 175
e 154 179
e 154 186
e 154 188
e 154 193
e 154 195
e 154 197
e 155 157
e 155 159
e 155 175
e 155 179
e 155 180
e 155 182
e 155 185
e 155 186
e 155 192
e 155 195
e 156 160
e 156 162
e 156 163
e 156 168
e 156 183
e 156 187
e 156 194
e 156 200
e 157 167
e 157 177
e 157 184
e 157 197
e 157 198
e 157 199
e 158 162
e 158 170
e 158 176
e 159 162
e 159 165
e 159 169
e 159 181
e 159 187
e 159 189
e 159 196
e 159 199
e 160 173
e 160 174
e 160 176
e 160 192
e 160 193
e 160 194
e 160 198
e 160 200
e 161 165
e 161 168
e 161 177
e 161 178
e 161 181
e 161 190
e 161 193
e 161 195
e 161 199
e 162 167
e 162 173
e 162 178
e 162 179
e 162 182
e 162 184
e 162 186
e 162 193
e 162 195
e 163 173
e 163 179
e 163 181
e 163 182
e 163 185
e 163 189
e 163 191
e 163 198
e 163 200
e 164 169
e 164 171
e 164 175
e 164 183
e 164 184
e 164 188
e 164 189
e 164 191
e 164 192
e 165 169
e 165 174
e 165 179
e 165 181
e 165 190
e 165 192
e 166 181
e 166 190
e 166 193
e 167 168
e 167 169
e 167 181
e 167 194
e 167 195
e 167 200
e 168 169
e 168 176
e 168 177
e 168 178
e 168 186
e 168 192
e 168 194
e 168 196
e 168 199
e 168 200
e 169 170
e 169 174
e 169 179
e 169 180
e 169 181
e 169 198
e 170 172
e 170 174
e 170 177
e 170 181
e 170 182
e 170 183
e 170 185
e 170 187
e 170 197
e 170 198
e 171 181
e 171 186
e 171 192
e 171 198
e 172 181
e 172 185
e 172 198
e 172 199
e 172 200
e 173 177
e 173 187
e 173 190
e 174 179
e 174 180
e 175 183
e 175 185
e 175 186
e 175 190
e 175 196
e 175 200
e 176 178
e 176 183
e 176 185
e 176 192
e 176 194
e 176 198
e 177 178
e 178 182
e 178 184
e 178 192
e 178 200
e 179 181
e 179 192
e 179 196
e 179 197
e 179 198
e 179 200
e 180 182
e 180 187
e 180 193
e 180 200
e 181 185
e 181 192
e 181 198
e 181 199
e 182 183
e 182 188
e 182 192
e 182 200
e 183 184
e 183 185
e 184 188
e 184 198
e 185 196
e 185 199
e 186 190
e 186 198
e 186 200
e 187 188
e 187 190
e 187 197
e 187 199
e 188 190
e 188 194
e 188 195
e 188 197
e 189 190
e 189 193
e 189 198
e 189 199
e 190 191
e 190 194
e 191 193
e 192 193
e 192 197
e 193 198
e 193 199
e 195 197